p edge 40 71 20
v 2 5 17
v 2 10 29
v 2 12 39
v 2 16 22
v 2 14 25
v 3 15 23 36
v 2 6 18
v 2 37 38
v 2 27 35
v 1 32
v 1 34
v 1 40
v 5 2 20 21 30 31
v 2 3 11
v 2 1 13
v 1 24
v 3 4 7 26
v 1 19
v 3 8 28 33
v 1 9
e 1 4
e 1 10
e 1 13
e 1 23
e 1 24
e 1 27
e 1 34
e 3 5
e 3 39
e 4 9
e 4 23
e 4 26
e 4 33
e 4 40
e 5 9
e 5 13
e 6 23
e 6 26
e 7 11
e 7 13
e 7 15
e 7 21
e 7 25
e 7 28
e 8 15
e 8 19
e 9 24
e 10 12
e 10 19
e 10 26
e 10 39
e 11 24
e 12 25
e 12 33
e 12 37
e 13 25
e 14 30
e 14 38
e 15 30
e 16 22
e 16 38
e 17 21
e 17 22
e 17 32
e 17 39
e 18 36
e 18 38
e 19 36
e 19 39
e 19 40
e 20 27
e 20 29
e 21 23
e 21 32
e 21 37
e 22 23
e 22 24
e 22 39
e 23 35
e 23 36
e 24 25
e 24 34
e 27 29
e 27 36
e 27 39
e 28 32
e 29 34
e 30 32
e 31 33
e 31 35
e 35 37
